c example DIMACS-CNF 
p cnf 9 35 
1 2 3 4 0 
-1 -2 0 
-1 -3 0 
-1 -4 0 
-2 -3 0 
-2 -4 0 
-3 -4 0 
5 6 7 0 
-5 -6 0 
-5 -7 0 
-6 -7 0 
8 9 0 
-8 -9 0 
-5 -2 0 
-5 -3 0 
-5 -4 0 
-6 -1 0 
-6 -2 0 
-6 -3 0 
-7 -1 0 
-7 -2 0 
-7 -3 0 
-7 -4 0 
-8 -1 0 
-8 -2 0 
-8 -3 0 
-8 -4 0 
-9 -2 0 
-9 -3 0 
-9 -4 0 
-8 -5 0 
-8 -6 0 
-8 -7 0 
-9 -6 0 
-9 -7 0 